
Gurobi 9.1.2 (win64) logging started Tue Dec  7 08:55:42 2021

Gurobi Optimizer version 9.1.2 build v9.1.2rc0 (win64)
Thread count: 8 physical cores, 8 logical processors, using up to 8 threads
Optimize a model with 1 rows, 149 columns and 148 nonzeros
Model fingerprint: 0x50b0c349
Variable types: 1 continuous, 148 integer (148 binary)
Coefficient statistics:
  Matrix range     [1e+00, 1e+01]
  Objective range  [1e+00, 1e+00]
  Bounds range     [1e+01, 1e+01]
  RHS range        [1e+01, 1e+01]
Presolve time: 0.00s
Presolved: 1 rows, 149 columns, 148 nonzeros
Variable types: 1 continuous, 148 integer (148 binary)

Root simplex log...

Iteration    Objective       Primal Inf.    Dual Inf.      Time
       0   -1.1167061e+01   1.006696e-01   0.000000e+00     18s
       2   -1.1167061e+01   0.000000e+00   0.000000e+00     18s

Root relaxation: objective -1.116706e+01, 2 iterations, 0.00 seconds

    Nodes    |    Current Node    |     Objective Bounds      |     Work
 Expl Unexpl |  Obj  Depth IntInf | Incumbent    BestBd   Gap | It/Node Time

     0     0   -6.39175    0    2          -   -6.39175      -     -   18s
H    0     0                       0.9824018   -6.39175   751%     -   18s
H    0     0                       0.9812785   -6.39175   751%     -   20s
H    0     0                       0.9344684   -6.39175   784%     -   21s
H    0     0                       0.9336214   -6.39175   785%     -   21s
H    0     0                       0.9336214   -6.39175   785%     -   21s
     0     0   -3.94890    0    5    0.93362   -3.94890   523%     -   21s
H    0     0                       0.9336214   -3.94890   523%     -   22s
H    0     0                       0.9336214   -3.94890   523%     -   22s
H    0     0                       0.9336214   -3.94890   523%     -   23s
     0     0   -3.04929    0    6    0.93362   -3.04929   427%     -   23s
     0     0   -2.86857    0    9    0.93362   -2.86857   407%     -   23s
     0     0   -2.82831    0    9    0.93362   -2.82831   403%     -   23s
     0     0   -2.82626    0    9    0.93362   -2.82626   403%     -   23s
     0     0   -2.82494    0    9    0.93362   -2.82494   403%     -   23s
     0     0   -2.46080    0    9    0.93362   -2.46080   364%     -   23s
     0     0   -2.29872    0    8    0.93362   -2.29872   346%     -   24s
     0     0   -2.12994    0    9    0.93362   -2.12994   328%     -   24s
H    0     0                       0.9336214   -2.12994   328%     -   24s
     0     0   -2.12958    0    9    0.93362   -2.12958   328%     -   24s
     0     0   -1.96342    0    9    0.93362   -1.96342   310%     -   24s
     0     0   -1.93453    0    8    0.93362   -1.93453   307%     -   24s
     0     0   -1.81208    0    9    0.93362   -1.81208   294%     -   24s
     0     0   -1.81166    0   10    0.93362   -1.81166   294%     -   24s
     0     0   -1.63196    0    7    0.93362   -1.63196   275%     -   24s
H    0     0                       0.9336214   -1.63196   275%     -   24s
     0     0   -1.61613    0    9    0.93362   -1.61613   273%     -   24s
     0     0   -1.60917    0    9    0.93362   -1.60917   272%     -   24s
     0     0   -1.59790    0    9    0.93362   -1.59790   271%     -   24s
     0     0   -1.59790    0    6    0.93362   -1.59790   271%     -   25s
     0     0   -1.59790    0    9    0.93362   -1.59790   271%     -   25s
H    0     0                       0.9336214   -1.59790   271%     -   25s
H    0     0                       0.9336214   -1.59790   271%     -   25s
     0     0   -1.59790    0    9    0.93362   -1.59790   271%     -   25s
     0     0   -1.59069    0    9    0.93362   -1.59069   270%     -   25s
     0     0   -1.58796    0    9    0.93362   -1.58796   270%     -   25s
H    0     0                       0.9336214   -1.58796   270%     -   25s
     0     0   -1.54559    0    8    0.93362   -1.54559   266%     -   25s
H    0     0                       0.9336214   -1.54559   266%     -   26s
H    0     0                       0.9336214   -1.54559   266%     -   26s
     0     0   -1.54172    0    9    0.93362   -1.54172   265%     -   26s
     0     0   -1.49596    0   10    0.93362   -1.49596   260%     -   26s
     0     0   -1.39325    0    9    0.93362   -1.39325   249%     -   26s
     0     0   -1.39192    0   10    0.93362   -1.39192   249%     -   26s
     0     0   -1.38903    0   10    0.93362   -1.38903   249%     -   26s
     0     0   -1.38894    0   10    0.93362   -1.38894   249%     -   26s
     0     0   -1.38695    0    8    0.93362   -1.38695   249%     -   26s
H    0     0                       0.9336214   -1.38695   249%     -   26s
     0     0   -1.38492    0    9    0.93362   -1.38492   248%     -   26s
     0     0   -1.38337    0   10    0.93362   -1.38337   248%     -   26s
H    0     0                       0.9336214   -1.38337   248%     -   26s
     0     0   -1.38233    0   10    0.93362   -1.38233   248%     -   26s
     0     0   -1.38128    0   10    0.93362   -1.38128   248%     -   26s
H    0     0                       0.9336214   -1.38128   248%     -   26s
     0     2   -1.38128    0   10    0.93362   -1.38128   248%     -   26s

Cutting planes:
  MIR: 11
  Lazy constraints: 1

Explored 127 nodes (687 simplex iterations) in 26.77 seconds
Thread count was 8 (of 8 available processors)

Solution count 6: 0.933621 0.933621 0.933621 ... 0.982402

Optimal solution found (tolerance 1.00e-04)
Best objective 9.336214436415e-01, best bound 9.336214436415e-01, gap 0.0000%

User-callback calls 562, time in user-callback 30.21 sec
